n_nodes = 694;
M = 6701;
n_domains = 18;
domain_link_weights = [|0,6701,6701,358,6701,6701,6701,6701,6701,6701,6701,6701,6701,6701,6701,6701,6701,6701|6701,0,6701,6701,6701,479,344,264,6701,6701,6701,6701,6701,6701,6701,6701,6701,6701|6701,6701,0,6701,6701,6701,6701,6701,6701,972,6701,6701,6701,6701,1788,6701,6701,6701|6701,6701,6701,0,6701,6701,6701,6701,6701,6701,6701,6701,6701,6701,6701,6701,6701,6701|6701,6701,6701,6701,0,364,358,173,6701,6701,6701,6701,6701,6701,6701,6701,6701,6223|6701,6701,6701,6701,6701,0,6701,6701,6701,6701,6701,6701,6701,6701,6701,6701,6701,6701|6701,6701,6701,6701,6701,6701,0,6701,5585,6701,6701,6701,6701,6701,6701,6701,6701,6701|6701,6701,6701,6701,6701,6701,6701,0,6701,6701,6701,6701,6701,6701,6701,6701,6701,6701|6701,6701,6701,6701,6701,6701,6701,6701,0,6701,6701,6701,6701,6701,6701,1148,556,350|6701,6701,6701,6701,6701,6701,6701,6701,6701,0,6701,6701,6701,2562,6701,943,6701,852|6701,6701,6701,6701,6701,6701,6701,6701,6701,6701,0,1141,6701,6701,6701,2795,6701,6701|6701,6701,6701,6701,6701,6701,6701,6701,6701,6701,6701,0,492,6701,6701,2963,6701,3855|6701,6701,6701,6701,6701,6701,6701,6701,6701,6701,6701,6701,0,575,1995,2807,6701,6701|6701,6701,6701,6701,6701,6701,6701,6701,6701,6701,6701,6701,6701,0,1425,6701,6701,6701|6701,6701,6701,6701,6701,6701,6701,6701,6701,6701,6701,6701,6701,6701,0,1291,6701,1872|6701,6701,6701,6701,6701,6701,6701,6701,6701,6701,6701,6701,6701,6701,6701,0,704,916|6701,6701,6701,6701,6701,6701,6701,6701,6701,6701,6701,6701,6701,6701,6701,6701,0,6701|6701,6701,6701,6701,6701,6701,6701,6701,6701,6701,6701,6701,6701,6701,6701,6701,6701,0|];
num_node_links = 1383;
node_links = [|1,3|1,4|2,6|2,7|2,8|3,10|3,15|5,6|5,7|5,8|5,18|7,9|9,16|9,17|9,18|10,14|10,16|10,18|11,12|11,16|12,13|12,16|12,18|13,14|13,15|13,16|14,15|15,16|15,18|16,17|16,18|1,19|19,1|1,48|48,1|1,72|72,1|1,90|90,1|1,113|113,1|1,120|120,1|1,154|154,1|1,193|193,1|1,221|221,1|1,239|239,1|1,265|265,1|1,279|279,1|1,293|293,1|1,307|307,1|1,363|363,1|1,372|372,1|1,407|407,1|1,424|424,1|1,440|440,1|1,450|450,1|1,489|489,1|1,515|515,1|1,532|532,1|1,569|569,1|1,604|604,1|1,608|608,1|1,614|614,1|1,620|620,1|1,626|626,1|1,644|644,1|1,645|645,1|1,647|647,1|1,662|662,1|1,665|665,1|1,680|680,1|2,20|20,2|2,51|51,2|2,101|101,2|2,168|168,2|2,226|226,2|2,228|228,2|2,233|233,2|2,268|268,2|2,274|274,2|2,283|283,2|2,302|302,2|2,304|304,2|2,318|318,2|2,326|326,2|2,327|327,2|2,336|336,2|2,358|358,2|2,364|364,2|2,375|375,2|2,385|385,2|2,398|398,2|2,449|449,2|2,466|466,2|2,479|479,2|2,483|483,2|2,485|485,2|2,491|491,2|2,492|492,2|2,504|504,2|2,511|511,2|2,542|542,2|2,585|585,2|2,605|605,2|2,606|606,2|2,623|623,2|2,635|635,2|2,636|636,2|2,659|659,2|3,21|21,3|3,40|40,3|3,81|81,3|3,82|82,3|3,103|103,3|3,104|104,3|3,152|152,3|3,153|153,3|3,164|164,3|3,169|169,3|3,185|185,3|3,190|190,3|3,199|199,3|3,225|225,3|3,246|246,3|3,250|250,3|3,253|253,3|3,286|286,3|3,296|296,3|3,309|309,3|3,349|349,3|3,361|361,3|3,376|376,3|3,389|389,3|3,403|403,3|3,419|419,3|3,421|421,3|3,442|442,3|3,443|443,3|3,457|457,3|3,472|472,3|3,480|480,3|3,490|490,3|3,500|500,3|3,541|541,3|3,625|625,3|3,648|648,3|4,22|22,4|4,39|39,4|4,44|44,4|4,45|45,4|4,95|95,4|4,107|107,4|4,118|118,4|4,126|126,4|4,128|128,4|4,139|139,4|4,181|181,4|4,184|184,4|4,209|209,4|4,213|213,4|4,231|231,4|4,238|238,4|4,248|248,4|4,264|264,4|4,271|271,4|4,295|295,4|4,298|298,4|4,325|325,4|4,397|397,4|4,417|417,4|4,439|439,4|4,441|441,4|4,462|462,4|4,468|468,4|4,517|517,4|4,550|550,4|4,553|553,4|4,577|577,4|4,588|588,4|4,632|632,4|4,633|633,4|4,671|671,4|4,684|684,4|4,693|693,4|5,23|23,5|5,57|57,5|5,96|96,5|5,106|106,5|5,135|135,5|5,166|166,5|5,167|167,5|5,171|171,5|5,173|173,5|5,182|182,5|5,195|195,5|5,202|202,5|5,299|299,5|5,315|315,5|5,321|321,5|5,355|355,5|5,368|368,5|5,370|370,5|5,380|380,5|5,381|381,5|5,414|414,5|5,431|431,5|5,487|487,5|5,497|497,5|5,516|516,5|5,534|534,5|5,546|546,5|5,556|556,5|5,575|575,5|5,587|587,5|5,596|596,5|5,598|598,5|5,638|638,5|5,651|651,5|5,666|666,5|5,672|672,5|5,677|677,5|5,688|688,5|6,24|24,6|6,53|53,6|6,60|60,6|6,93|93,6|6,121|121,6|6,129|129,6|6,138|138,6|6,150|150,6|6,162|162,6|6,179|179,6|6,214|214,6|6,215|215,6|6,249|249,6|6,259|259,6|6,272|272,6|6,300|300,6|6,328|328,6|6,334|334,6|6,351|351,6|6,357|357,6|6,374|374,6|6,406|406,6|6,413|413,6|6,422|422,6|6,430|430,6|6,435|435,6|6,453|453,6|6,454|454,6|6,470|470,6|6,481|481,6|6,502|502,6|6,544|544,6|6,586|586,6|6,621|621,6|6,642|642,6|6,657|657,6|6,664|664,6|6,674|674,6|7,25|25,7|7,43|43,7|7,49|49,7|7,56|56,7|7,58|58,7|7,74|74,7|7,97|97,7|7,136|136,7|7,147|147,7|7,177|177,7|7,188|188,7|7,200|200,7|7,203|203,7|7,207|207,7|7,208|208,7|7,211|211,7|7,242|242,7|7,306|306,7|7,371|371,7|7,396|396,7|7,455|455,7|7,465|465,7|7,476|476,7|7,486|486,7|7,496|496,7|7,510|510,7|7,526|526,7|7,531|531,7|7,540|540,7|7,554|554,7|7,571|571,7|7,599|599,7|7,600|600,7|7,622|622,7|7,624|624,7|7,667|667,7|7,683|683,7|7,687|687,7|8,26|26,8|8,91|91,8|8,92|92,8|8,100|100,8|8,125|125,8|8,130|130,8|8,140|140,8|8,144|144,8|8,157|157,8|8,186|186,8|8,187|187,8|8,234|234,8|8,280|280,8|8,311|311,8|8,313|313,8|8,343|343,8|8,348|348,8|8,369|369,8|8,390|390,8|8,399|399,8|8,429|429,8|8,446|446,8|8,467|467,8|8,501|501,8|8,539|539,8|8,548|548,8|8,551|551,8|8,555|555,8|8,570|570,8|8,595|595,8|8,612|612,8|8,613|613,8|8,628|628,8|8,629|629,8|8,631|631,8|8,639|639,8|8,669|669,8|8,686|686,8|9,27|27,9|9,37|37,9|9,69|69,9|9,70|70,9|9,75|75,9|9,87|87,9|9,98|98,9|9,110|110,9|9,117|117,9|9,172|172,9|9,175|175,9|9,183|183,9|9,256|256,9|9,273|273,9|9,276|276,9|9,289|289,9|9,301|301,9|9,308|308,9|9,316|316,9|9,335|335,9|9,340|340,9|9,347|347,9|9,384|384,9|9,388|388,9|9,408|408,9|9,427|427,9|9,428|428,9|9,477|477,9|9,493|493,9|9,494|494,9|9,498|498,9|9,520|520,9|9,536|536,9|9,549|549,9|9,617|617,9|9,656|656,9|9,681|681,9|9,692|692,9|10,28|28,10|10,55|55,10|10,61|61,10|10,71|71,10|10,77|77,10|10,83|83,10|10,85|85,10|10,102|102,10|10,114|114,10|10,160|160,10|10,178|178,10|10,206|206,10|10,217|217,10|10,219|219,10|10,245|245,10|10,251|251,10|10,261|261,10|10,275|275,10|10,281|281,10|10,297|297,10|10,303|303,10|10,305|305,10|10,312|312,10|10,322|322,10|10,333|333,10|10,426|426,10|10,456|456,10|10,474|474,10|10,523|523,10|10,564|564,10|10,579|579,10|10,591|591,10|10,607|607,10|10,616|616,10|10,637|637,10|10,661|661,10|10,682|682,10|10,694|694,10|11,29|29,11|11,42|42,11|11,52|52,11|11,63|63,11|11,94|94,11|11,122|122,11|11,134|134,11|11,146|146,11|11,148|148,11|11,170|170,11|11,176|176,11|11,198|198,11|11,254|254,11|11,262|262,11|11,266|266,11|11,282|282,11|11,288|288,11|11,314|314,11|11,317|317,11|11,346|346,11|11,365|365,11|11,394|394,11|11,401|401,11|11,459|459,11|11,473|473,11|11,507|507,11|11,508|508,11|11,519|519,11|11,560|560,11|11,561|561,11|11,576|576,11|11,581|581,11|11,589|589,11|11,594|594,11|11,602|602,11|11,619|619,11|11,627|627,11|11,646|646,11|12,30|30,12|12,89|89,12|12,116|116,12|12,127|127,12|12,131|131,12|12,151|151,12|12,156|156,12|12,204|204,12|12,218|218,12|12,257|257,12|12,270|270,12|12,285|285,12|12,323|323,12|12,329|329,12|12,337|337,12|12,345|345,12|12,377|377,12|12,386|386,12|12,393|393,12|12,400|400,12|12,409|409,12|12,425|425,12|12,452|452,12|12,463|463,12|12,482|482,12|12,499|499,12|12,505|505,12|12,514|514,12|12,528|528,12|12,543|543,12|12,545|545,12|12,552|552,12|12,565|565,12|12,573|573,12|12,593|593,12|12,634|634,12|12,673|673,12|12,678|678,12|13,31|31,13|13,38|38,13|13,59|59,13|13,66|66,13|13,73|73,13|13,88|88,13|13,99|99,13|13,115|115,13|13,124|124,13|13,142|142,13|13,180|180,13|13,192|192,13|13,201|201,13|13,212|212,13|13,220|220,13|13,235|235,13|13,244|244,13|13,260|260,13|13,269|269,13|13,292|292,13|13,319|319,13|13,341|341,13|13,360|360,13|13,383|383,13|13,402|402,13|13,404|404,13|13,405|405,13|13,433|433,13|13,484|484,13|13,512|512,13|13,521|521,13|13,547|547,13|13,578|578,13|13,582|582,13|13,653|653,13|13,668|668,13|13,690|690,13|14,32|32,14|14,41|41,14|14,64|64,14|14,67|67,14|14,76|76,14|14,84|84,14|14,108|108,14|14,109|109,14|14,111|111,14|14,143|143,14|14,158|158,14|14,163|163,14|14,191|191,14|14,205|205,14|14,224|224,14|14,230|230,14|14,240|240,14|14,241|241,14|14,287|287,14|14,338|338,14|14,362|362,14|14,395|395,14|14,411|411,14|14,423|423,14|14,448|448,14|14,451|451,14|14,460|460,14|14,524|524,14|14,535|535,14|14,559|559,14|14,584|584,14|14,603|603,14|14,630|630,14|14,640|640,14|14,641|641,14|14,654|654,14|14,655|655,14|14,676|676,14|15,33|33,15|15,54|54,15|15,65|65,15|15,112|112,15|15,137|137,15|15,155|155,15|15,197|197,15|15,210|210,15|15,237|237,15|15,277|277,15|15,278|278,15|15,331|331,15|15,332|332,15|15,379|379,15|15,391|391,15|15,392|392,15|15,410|410,15|15,412|412,15|15,416|416,15|15,418|418,15|15,461|461,15|15,488|488,15|15,495|495,15|15,503|503,15|15,506|506,15|15,525|525,15|15,527|527,15|15,530|530,15|15,538|538,15|15,562|562,15|15,568|568,15|15,580|580,15|15,597|597,15|15,611|611,15|15,643|643,15|15,650|650,15|15,663|663,15|15,689|689,15|16,34|34,16|16,50|50,16|16,68|68,16|16,119|119,16|16,132|132,16|16,133|133,16|16,159|159,16|16,161|161,16|16,194|194,16|16,196|196,16|16,243|243,16|16,252|252,16|16,255|255,16|16,258|258,16|16,290|290,16|16,294|294,16|16,310|310,16|16,324|324,16|16,339|339,16|16,356|356,16|16,378|378,16|16,382|382,16|16,415|415,16|16,432|432,16|16,447|447,16|16,518|518,16|16,522|522,16|16,529|529,16|16,572|572,16|16,590|590,16|16,618|618,16|16,660|660,16|16,670|670,16|16,675|675,16|16,679|679,16|17,35|35,17|17,78|78,17|17,80|80,17|17,86|86,17|17,123|123,17|17,145|145,17|17,149|149,17|17,189|189,17|17,222|222,17|17,227|227,17|17,229|229,17|17,232|232,17|17,236|236,17|17,247|247,17|17,263|263,17|17,267|267,17|17,284|284,17|17,342|342,17|17,344|344,17|17,353|353,17|17,354|354,17|17,366|366,17|17,367|367,17|17,373|373,17|17,420|420,17|17,438|438,17|17,464|464,17|17,469|469,17|17,471|471,17|17,533|533,17|17,557|557,17|17,558|558,17|17,566|566,17|17,583|583,17|17,609|609,17|17,649|649,17|17,658|658,17|17,685|685,17|18,36|36,18|18,46|46,18|18,47|47,18|18,62|62,18|18,79|79,18|18,105|105,18|18,141|141,18|18,165|165,18|18,174|174,18|18,216|216,18|18,223|223,18|18,291|291,18|18,320|320,18|18,330|330,18|18,350|350,18|18,352|352,18|18,359|359,18|18,387|387,18|18,434|434,18|18,436|436,18|18,437|437,18|18,444|444,18|18,445|445,18|18,458|458,18|18,475|475,18|18,478|478,18|18,509|509,18|18,513|513,18|18,537|537,18|18,563|563,18|18,567|567,18|18,574|574,18|18,592|592,18|18,601|601,18|18,610|610,18|18,615|615,18|18,652|652,18|18,691|691,18|];
nodes = [|1,9,0,0,0,0,1,1|2,9,0,0,0,0,1,2|3,9,0,0,0,0,1,3|4,9,0,0,0,0,1,4|5,9,0,0,0,0,1,5|6,9,0,0,0,0,1,6|7,9,0,0,0,0,1,7|8,9,0,0,0,0,1,8|9,9,0,0,0,0,1,9|10,9,0,0,0,0,1,10|11,9,0,0,0,0,1,11|12,9,0,0,0,0,1,12|13,9,0,0,0,0,1,13|14,9,0,0,0,0,1,14|15,9,0,0,0,0,1,15|16,9,0,0,0,0,1,16|17,9,0,0,0,0,1,17|18,9,0,0,0,0,1,18|19,10,0,0,0,0,1,1|20,10,0,0,0,0,1,2|21,10,0,0,0,0,1,3|22,10,0,0,0,0,1,4|23,10,0,0,0,0,1,5|24,10,0,0,0,0,1,6|25,10,0,0,0,0,1,7|26,10,0,0,0,0,1,8|27,10,0,0,0,0,1,9|28,10,0,0,0,0,1,10|29,10,0,0,0,0,1,11|30,10,0,0,0,0,1,12|31,10,0,0,0,0,1,13|32,10,0,0,0,0,1,14|33,10,0,0,0,0,1,15|34,10,0,0,0,0,1,16|35,10,0,0,0,0,1,17|36,10,0,0,0,0,1,18|37,2,0,0,0,0,1,9|38,4,0,0,0,0,1,13|39,4,0,0,0,0,1,4|40,5,0,0,0,0,1,3|41,2,0,0,0,0,1,14|42,1,0,0,0,0,1,11|43,3,0,0,0,0,1,7|44,3,0,0,0,0,1,4|45,4,0,0,0,0,1,4|46,1,0,0,0,0,1,18|47,1,0,0,0,0,1,18|48,5,0,0,0,0,1,1|49,5,0,0,0,0,1,7|50,1,0,0,0,0,1,16|51,2,0,0,0,0,1,2|52,4,0,0,0,0,1,11|53,2,0,0,0,0,1,6|54,3,0,0,0,0,1,15|55,3,0,0,0,0,1,10|56,3,0,0,0,0,1,7|57,2,0,0,0,0,1,5|58,3,0,0,0,0,1,7|59,4,0,0,0,0,1,13|60,4,0,0,0,0,1,6|61,1,0,0,0,0,1,10|62,1,0,0,0,0,1,18|63,4,0,0,0,0,1,11|64,3,0,0,0,0,1,14|65,2,0,0,0,0,1,15|66,5,0,0,0,0,1,13|67,2,0,0,0,0,1,14|68,1,0,0,0,0,1,16|69,2,0,0,0,0,1,9|70,3,0,0,0,0,1,9|71,5,0,0,0,0,1,10|72,5,0,0,0,0,1,1|73,1,0,0,0,0,1,13|74,5,0,0,0,0,1,7|75,5,0,0,0,0,1,9|76,2,0,0,0,0,1,14|77,4,0,0,0,0,1,10|78,5,0,0,0,0,1,17|79,2,0,0,0,0,1,18|80,2,0,0,0,0,1,17|81,4,0,0,0,0,1,3|82,3,0,0,0,0,1,3|83,1,0,0,0,0,1,10|84,3,0,0,0,0,1,14|85,2,0,0,0,0,1,10|86,2,0,0,0,0,1,17|87,3,0,0,0,0,1,9|88,3,0,0,0,0,1,13|89,4,0,0,0,0,1,12|90,5,0,0,0,0,1,1|91,4,0,0,0,0,1,8|92,1,0,0,0,0,1,8|93,4,0,0,0,0,1,6|94,1,0,0,0,0,1,11|95,5,0,0,0,0,1,4|96,5,0,0,0,0,1,5|97,2,0,0,0,0,1,7|98,3,0,0,0,0,1,9|99,2,0,0,0,0,1,13|100,2,0,0,0,0,1,8|101,3,0,0,0,0,1,2|102,3,0,0,0,0,1,10|103,3,0,0,0,0,1,3|104,4,0,0,0,0,1,3|105,2,0,0,0,0,1,18|106,4,0,0,0,0,1,5|107,3,0,0,0,0,1,4|108,1,0,0,0,0,1,14|109,1,0,0,0,0,1,14|110,5,0,0,0,0,1,9|111,3,0,0,0,0,1,14|112,2,0,0,0,0,1,15|113,3,0,0,0,0,1,1|114,2,0,0,0,0,1,10|115,1,0,0,0,0,1,13|116,2,0,0,0,0,1,12|117,2,0,0,0,0,1,9|118,1,0,0,0,0,1,4|119,5,0,0,0,0,1,16|120,5,0,0,0,0,1,1|121,1,0,0,0,0,1,6|122,3,0,0,0,0,1,11|123,4,0,0,0,0,1,17|124,4,0,0,0,0,1,13|125,2,0,0,0,0,1,8|126,2,0,0,0,0,1,4|127,5,0,0,0,0,1,12|128,3,0,0,0,0,1,4|129,3,0,0,0,0,1,6|130,4,0,0,0,0,1,8|131,1,0,0,0,0,1,12|132,1,0,0,0,0,1,16|133,2,0,0,0,0,1,16|134,2,0,0,0,0,1,11|135,1,0,0,0,0,1,5|136,4,0,0,0,0,1,7|137,5,0,0,0,0,1,15|138,2,0,0,0,0,1,6|139,2,0,0,0,0,1,4|140,2,0,0,0,0,1,8|141,1,0,0,0,0,1,18|142,3,0,0,0,0,1,13|143,2,0,0,0,0,1,14|144,4,0,0,0,0,1,8|145,4,0,0,0,0,1,17|146,2,0,0,0,0,1,11|147,4,0,0,0,0,1,7|148,2,0,0,0,0,1,11|149,3,0,0,0,0,1,17|150,4,0,0,0,0,1,6|151,3,0,0,0,0,1,12|152,5,0,0,0,0,1,3|153,2,0,0,0,0,1,3|154,1,0,0,0,0,1,1|155,1,0,0,0,0,1,15|156,5,0,0,0,0,1,12|157,5,0,0,0,0,1,8|158,1,0,0,0,0,1,14|159,5,0,0,0,0,1,16|160,3,0,0,0,0,1,10|161,3,0,0,0,0,1,16|162,4,0,0,0,0,1,6|163,2,0,0,0,0,1,14|164,2,0,0,0,0,1,3|165,5,0,0,0,0,1,18|166,2,0,0,0,0,1,5|167,2,0,0,0,0,1,5|168,4,0,0,0,0,1,2|169,3,0,0,0,0,1,3|170,1,0,0,0,0,1,11|171,1,0,0,0,0,1,5|172,1,0,0,0,0,1,9|173,3,0,0,0,0,1,5|174,1,0,0,0,0,1,18|175,5,0,0,0,0,1,9|176,4,0,0,0,0,1,11|177,1,0,0,0,0,1,7|178,3,0,0,0,0,1,10|179,3,0,0,0,0,1,6|180,1,0,0,0,0,1,13|181,2,0,0,0,0,1,4|182,2,0,0,0,0,1,5|183,5,0,0,0,0,1,9|184,3,0,0,0,0,1,4|185,5,0,0,0,0,1,3|186,3,0,0,0,0,1,8|187,1,0,0,0,0,1,8|188,2,0,0,0,0,1,7|189,1,0,0,0,0,1,17|190,4,0,0,0,0,1,3|191,3,0,0,0,0,1,14|192,5,0,0,0,0,1,13|193,2,0,0,0,0,1,1|194,3,0,0,0,0,1,16|195,3,0,0,0,0,1,5|196,3,0,0,0,0,1,16|197,2,0,0,0,0,1,15|198,1,0,0,0,0,1,11|199,5,0,0,0,0,1,3|200,4,0,0,0,0,1,7|201,4,0,0,0,0,1,13|202,1,0,0,0,0,1,5|203,1,0,0,0,0,1,7|204,3,0,0,0,0,1,12|205,1,0,0,0,0,1,14|206,2,0,0,0,0,1,10|207,3,0,0,0,0,1,7|208,1,0,0,0,0,1,7|209,3,0,0,0,0,1,4|210,3,0,0,0,0,1,15|211,5,0,0,0,0,1,7|212,2,0,0,0,0,1,13|213,2,0,0,0,0,1,4|214,5,0,0,0,0,1,6|215,2,0,0,0,0,1,6|216,3,0,0,0,0,1,18|217,1,0,0,0,0,1,10|218,5,0,0,0,0,1,12|219,3,0,0,0,0,1,10|220,2,0,0,0,0,1,13|221,4,0,0,0,0,1,1|222,1,0,0,0,0,1,17|223,1,0,0,0,0,1,18|224,1,0,0,0,0,1,14|225,1,0,0,0,0,1,3|226,4,0,0,0,0,1,2|227,3,0,0,0,0,1,17|228,5,0,0,0,0,1,2|229,2,0,0,0,0,1,17|230,4,0,0,0,0,1,14|231,1,0,0,0,0,1,4|232,2,0,0,0,0,1,17|233,2,0,0,0,0,1,2|234,2,0,0,0,0,1,8|235,4,0,0,0,0,1,13|236,5,0,0,0,0,1,17|237,4,0,0,0,0,1,15|238,3,0,0,0,0,1,4|239,3,0,0,0,0,1,1|240,5,0,0,0,0,1,14|241,4,0,0,0,0,1,14|242,4,0,0,0,0,1,7|243,2,0,0,0,0,1,16|244,1,0,0,0,0,1,13|245,2,0,0,0,0,1,10|246,4,0,0,0,0,1,3|247,2,0,0,0,0,1,17|248,4,0,0,0,0,1,4|249,5,0,0,0,0,1,6|250,1,0,0,0,0,1,3|251,5,0,0,0,0,1,10|252,2,0,0,0,0,1,16|253,2,0,0,0,0,1,3|254,1,0,0,0,0,1,11|255,2,0,0,0,0,1,16|256,5,0,0,0,0,1,9|257,5,0,0,0,0,1,12|258,5,0,0,0,0,1,16|259,5,0,0,0,0,1,6|260,5,0,0,0,0,1,13|261,1,0,0,0,0,1,10|262,5,0,0,0,0,1,11|263,5,0,0,0,0,1,17|264,5,0,0,0,0,1,4|265,1,0,0,0,0,1,1|266,3,0,0,0,0,1,11|267,4,0,0,0,0,1,17|268,1,0,0,0,0,1,2|269,3,0,0,0,0,1,13|270,2,0,0,0,0,1,12|271,2,0,0,0,0,1,4|272,3,0,0,0,0,1,6|273,3,0,0,0,0,1,9|274,4,0,0,0,0,1,2|275,3,0,0,0,0,1,10|276,4,0,0,0,0,1,9|277,5,0,0,0,0,1,15|278,1,0,0,0,0,1,15|279,2,0,0,0,0,1,1|280,2,0,0,0,0,1,8|281,1,0,0,0,0,1,10|282,5,0,0,0,0,1,11|283,3,0,0,0,0,1,2|284,4,0,0,0,0,1,17|285,3,0,0,0,0,1,12|286,5,0,0,0,0,1,3|287,2,0,0,0,0,1,14|288,3,0,0,0,0,1,11|289,4,0,0,0,0,1,9|290,1,0,0,0,0,1,16|291,1,0,0,0,0,1,18|292,3,0,0,0,0,1,13|293,1,0,0,0,0,1,1|294,3,0,0,0,0,1,16|295,1,0,0,0,0,1,4|296,3,0,0,0,0,1,3|297,4,0,0,0,0,1,10|298,2,0,0,0,0,1,4|299,2,0,0,0,0,1,5|300,5,0,0,0,0,1,6|301,1,0,0,0,0,1,9|302,3,0,0,0,0,1,2|303,3,0,0,0,0,1,10|304,4,0,0,0,0,1,2|305,4,0,0,0,0,1,10|306,3,0,0,0,0,1,7|307,2,0,0,0,0,1,1|308,4,0,0,0,0,1,9|309,5,0,0,0,0,1,3|310,2,0,0,0,0,1,16|311,1,0,0,0,0,1,8|312,2,0,0,0,0,1,10|313,5,0,0,0,0,1,8|314,3,0,0,0,0,1,11|315,5,0,0,0,0,1,5|316,1,0,0,0,0,1,9|317,1,0,0,0,0,1,11|318,5,0,0,0,0,1,2|319,2,0,0,0,0,1,13|320,3,0,0,0,0,1,18|321,4,0,0,0,0,1,5|322,4,0,0,0,0,1,10|323,1,0,0,0,0,1,12|324,3,0,0,0,0,1,16|325,3,0,0,0,0,1,4|326,2,0,0,0,0,1,2|327,2,0,0,0,0,1,2|328,3,0,0,0,0,1,6|329,5,0,0,0,0,1,12|330,1,0,0,0,0,1,18|331,5,0,0,0,0,1,15|332,3,0,0,0,0,1,15|333,1,0,0,0,0,1,10|334,4,0,0,0,0,1,6|335,3,0,0,0,0,1,9|336,4,0,0,0,0,1,2|337,3,0,0,0,0,1,12|338,5,0,0,0,0,1,14|339,5,0,0,0,0,1,16|340,2,0,0,0,0,1,9|341,2,0,0,0,0,1,13|342,5,0,0,0,0,1,17|343,4,0,0,0,0,1,8|344,1,0,0,0,0,1,17|345,4,0,0,0,0,1,12|346,1,0,0,0,0,1,11|347,4,0,0,0,0,1,9|348,1,0,0,0,0,1,8|349,5,0,0,0,0,1,3|350,3,0,0,0,0,1,18|351,2,0,0,0,0,1,6|352,5,0,0,0,0,1,18|353,4,0,0,0,0,1,17|354,4,0,0,0,0,1,17|355,4,0,0,0,0,1,5|356,4,0,0,0,0,1,16|357,2,0,0,0,0,1,6|358,3,0,0,0,0,1,2|359,5,0,0,0,0,1,18|360,2,0,0,0,0,1,13|361,1,0,0,0,0,1,3|362,4,0,0,0,0,1,14|363,4,0,0,0,0,1,1|364,3,0,0,0,0,1,2|365,2,0,0,0,0,1,11|366,4,0,0,0,0,1,17|367,1,0,0,0,0,1,17|368,4,0,0,0,0,1,5|369,4,0,0,0,0,1,8|370,1,0,0,0,0,1,5|371,2,0,0,0,0,1,7|372,5,0,0,0,0,1,1|373,1,0,0,0,0,1,17|374,1,0,0,0,0,1,6|375,2,0,0,0,0,1,2|376,5,0,0,0,0,1,3|377,5,0,0,0,0,1,12|378,1,0,0,0,0,1,16|379,2,0,0,0,0,1,15|380,3,0,0,0,0,1,5|381,1,0,0,0,0,1,5|382,2,0,0,0,0,1,16|383,3,0,0,0,0,1,13|384,2,0,0,0,0,1,9|385,1,0,0,0,0,1,2|386,1,0,0,0,0,1,12|387,4,0,0,0,0,1,18|388,2,0,0,0,0,1,9|389,5,0,0,0,0,1,3|390,3,0,0,0,0,1,8|391,4,0,0,0,0,1,15|392,3,0,0,0,0,1,15|393,4,0,0,0,0,1,12|394,5,0,0,0,0,1,11|395,5,0,0,0,0,1,14|396,1,0,0,0,0,1,7|397,1,0,0,0,0,1,4|398,5,0,0,0,0,1,2|399,4,0,0,0,0,1,8|400,2,0,0,0,0,1,12|401,3,0,0,0,0,1,11|402,3,0,0,0,0,1,13|403,5,0,0,0,0,1,3|404,3,0,0,0,0,1,13|405,5,0,0,0,0,1,13|406,5,0,0,0,0,1,6|407,4,0,0,0,0,1,1|408,1,0,0,0,0,1,9|409,5,0,0,0,0,1,12|410,5,0,0,0,0,1,15|411,1,0,0,0,0,1,14|412,4,0,0,0,0,1,15|413,5,0,0,0,0,1,6|414,2,0,0,0,0,1,5|415,1,0,0,0,0,1,16|416,3,0,0,0,0,1,15|417,3,0,0,0,0,1,4|418,5,0,0,0,0,1,15|419,2,0,0,0,0,1,3|420,2,0,0,0,0,1,17|421,5,0,0,0,0,1,3|422,5,0,0,0,0,1,6|423,4,0,0,0,0,1,14|424,5,0,0,0,0,1,1|425,3,0,0,0,0,1,12|426,2,0,0,0,0,1,10|427,5,0,0,0,0,1,9|428,1,0,0,0,0,1,9|429,2,0,0,0,0,1,8|430,5,0,0,0,0,1,6|431,3,0,0,0,0,1,5|432,5,0,0,0,0,1,16|433,2,0,0,0,0,1,13|434,4,0,0,0,0,1,18|435,2,0,0,0,0,1,6|436,3,0,0,0,0,1,18|437,5,0,0,0,0,1,18|438,1,0,0,0,0,1,17|439,2,0,0,0,0,1,4|440,3,0,0,0,0,1,1|441,5,0,0,0,0,1,4|442,5,0,0,0,0,1,3|443,4,0,0,0,0,1,3|444,2,0,0,0,0,1,18|445,5,0,0,0,0,1,18|446,4,0,0,0,0,1,8|447,2,0,0,0,0,1,16|448,3,0,0,0,0,1,14|449,2,0,0,0,0,1,2|450,5,0,0,0,0,1,1|451,3,0,0,0,0,1,14|452,3,0,0,0,0,1,12|453,3,0,0,0,0,1,6|454,4,0,0,0,0,1,6|455,4,0,0,0,0,1,7|456,3,0,0,0,0,1,10|457,3,0,0,0,0,1,3|458,4,0,0,0,0,1,18|459,1,0,0,0,0,1,11|460,4,0,0,0,0,1,14|461,3,0,0,0,0,1,15|462,1,0,0,0,0,1,4|463,2,0,0,0,0,1,12|464,5,0,0,0,0,1,17|465,4,0,0,0,0,1,7|466,2,0,0,0,0,1,2|467,5,0,0,0,0,1,8|468,3,0,0,0,0,1,4|469,1,0,0,0,0,1,17|470,3,0,0,0,0,1,6|471,5,0,0,0,0,1,17|472,3,0,0,0,0,1,3|473,4,0,0,0,0,1,11|474,1,0,0,0,0,1,10|475,1,0,0,0,0,1,18|476,3,0,0,0,0,1,7|477,3,0,0,0,0,1,9|478,2,0,0,0,0,1,18|479,2,0,0,0,0,1,2|480,5,0,0,0,0,1,3|481,2,0,0,0,0,1,6|482,4,0,0,0,0,1,12|483,4,0,0,0,0,1,2|484,5,0,0,0,0,1,13|485,5,0,0,0,0,1,2|486,1,0,0,0,0,1,7|487,4,0,0,0,0,1,5|488,3,0,0,0,0,1,15|489,4,0,0,0,0,1,1|490,1,0,0,0,0,1,3|491,1,0,0,0,0,1,2|492,1,0,0,0,0,1,2|493,2,0,0,0,0,1,9|494,2,0,0,0,0,1,9|495,2,0,0,0,0,1,15|496,2,0,0,0,0,1,7|497,3,0,0,0,0,1,5|498,3,0,0,0,0,1,9|499,2,0,0,0,0,1,12|500,4,0,0,0,0,1,3|501,2,0,0,0,0,1,8|502,5,0,0,0,0,1,6|503,1,0,0,0,0,1,15|504,3,0,0,0,0,1,2|505,4,0,0,0,0,1,12|506,2,0,0,0,0,1,15|507,4,0,0,0,0,1,11|508,1,0,0,0,0,1,11|509,1,0,0,0,0,1,18|510,1,0,0,0,0,1,7|511,2,0,0,0,0,1,2|512,1,0,0,0,0,1,13|513,5,0,0,0,0,1,18|514,1,0,0,0,0,1,12|515,2,0,0,0,0,1,1|516,4,0,0,0,0,1,5|517,3,0,0,0,0,1,4|518,5,0,0,0,0,1,16|519,2,0,0,0,0,1,11|520,1,0,0,0,0,1,9|521,2,0,0,0,0,1,13|522,4,0,0,0,0,1,16|523,2,0,0,0,0,1,10|524,1,0,0,0,0,1,14|525,3,0,0,0,0,1,15|526,5,0,0,0,0,1,7|527,4,0,0,0,0,1,15|528,1,0,0,0,0,1,12|529,5,0,0,0,0,1,16|530,2,0,0,0,0,1,15|531,5,0,0,0,0,1,7|532,5,0,0,0,0,1,1|533,2,0,0,0,0,1,17|534,5,0,0,0,0,1,5|535,4,0,0,0,0,1,14|536,1,0,0,0,0,1,9|537,2,0,0,0,0,1,18|538,1,0,0,0,0,1,15|539,1,0,0,0,0,1,8|540,2,0,0,0,0,1,7|541,5,0,0,0,0,1,3|542,2,0,0,0,0,1,2|543,3,0,0,0,0,1,12|544,3,0,0,0,0,1,6|545,4,0,0,0,0,1,12|546,4,0,0,0,0,1,5|547,5,0,0,0,0,1,13|548,3,0,0,0,0,1,8|549,5,0,0,0,0,1,9|550,2,0,0,0,0,1,4|551,5,0,0,0,0,1,8|552,1,0,0,0,0,1,12|553,3,0,0,0,0,1,4|554,3,0,0,0,0,1,7|555,1,0,0,0,0,1,8|556,5,0,0,0,0,1,5|557,5,0,0,0,0,1,17|558,4,0,0,0,0,1,17|559,4,0,0,0,0,1,14|560,2,0,0,0,0,1,11|561,4,0,0,0,0,1,11|562,3,0,0,0,0,1,15|563,3,0,0,0,0,1,18|564,4,0,0,0,0,1,10|565,4,0,0,0,0,1,12|566,5,0,0,0,0,1,17|567,1,0,0,0,0,1,18|568,5,0,0,0,0,1,15|569,2,0,0,0,0,1,1|570,3,0,0,0,0,1,8|571,3,0,0,0,0,1,7|572,1,0,0,0,0,1,16|573,2,0,0,0,0,1,12|574,4,0,0,0,0,1,18|575,1,0,0,0,0,1,5|576,2,0,0,0,0,1,11|577,3,0,0,0,0,1,4|578,5,0,0,0,0,1,13|579,2,0,0,0,0,1,10|580,3,0,0,0,0,1,15|581,1,0,0,0,0,1,11|582,1,0,0,0,0,1,13|583,4,0,0,0,0,1,17|584,5,0,0,0,0,1,14|585,3,0,0,0,0,1,2|586,1,0,0,0,0,1,6|587,5,0,0,0,0,1,5|588,5,0,0,0,0,1,4|589,4,0,0,0,0,1,11|590,5,0,0,0,0,1,16|591,4,0,0,0,0,1,10|592,4,0,0,0,0,1,18|593,4,0,0,0,0,1,12|594,4,0,0,0,0,1,11|595,3,0,0,0,0,1,8|596,3,0,0,0,0,1,5|597,5,0,0,0,0,1,15|598,2,0,0,0,0,1,5|599,4,0,0,0,0,1,7|600,5,0,0,0,0,1,7|601,2,0,0,0,0,1,18|602,3,0,0,0,0,1,11|603,4,0,0,0,0,1,14|604,1,0,0,0,0,1,1|605,1,0,0,0,0,1,2|606,4,0,0,0,0,1,2|607,4,0,0,0,0,1,10|608,3,0,0,0,0,1,1|609,5,0,0,0,0,1,17|610,5,0,0,0,0,1,18|611,1,0,0,0,0,1,15|612,1,0,0,0,0,1,8|613,4,0,0,0,0,1,8|614,5,0,0,0,0,1,1|615,5,0,0,0,0,1,18|616,2,0,0,0,0,1,10|617,1,0,0,0,0,1,9|618,5,0,0,0,0,1,16|619,5,0,0,0,0,1,11|620,4,0,0,0,0,1,1|621,3,0,0,0,0,1,6|622,1,0,0,0,0,1,7|623,3,0,0,0,0,1,2|624,1,0,0,0,0,1,7|625,3,0,0,0,0,1,3|626,1,0,0,0,0,1,1|627,5,0,0,0,0,1,11|628,5,0,0,0,0,1,8|629,1,0,0,0,0,1,8|630,5,0,0,0,0,1,14|631,2,0,0,0,0,1,8|632,3,0,0,0,0,1,4|633,3,0,0,0,0,1,4|634,5,0,0,0,0,1,12|635,2,0,0,0,0,1,2|636,2,0,0,0,0,1,2|637,5,0,0,0,0,1,10|638,1,0,0,0,0,1,5|639,4,0,0,0,0,1,8|640,3,0,0,0,0,1,14|641,2,0,0,0,0,1,14|642,1,0,0,0,0,1,6|643,1,0,0,0,0,1,15|644,2,0,0,0,0,1,1|645,2,0,0,0,0,1,1|646,3,0,0,0,0,1,11|647,2,0,0,0,0,1,1|648,2,0,0,0,0,1,3|649,2,0,0,0,0,1,17|650,2,0,0,0,0,1,15|651,5,0,0,0,0,1,5|652,3,0,0,0,0,1,18|653,3,0,0,0,0,1,13|654,4,0,0,0,0,1,14|655,5,0,0,0,0,1,14|656,2,0,0,0,0,1,9|657,5,0,0,0,0,1,6|658,2,0,0,0,0,1,17|659,2,0,0,0,0,1,2|660,4,0,0,0,0,1,16|661,5,0,0,0,0,1,10|662,2,0,0,0,0,1,1|663,2,0,0,0,0,1,15|664,2,0,0,0,0,1,6|665,2,0,0,0,0,1,1|666,2,0,0,0,0,1,5|667,4,0,0,0,0,1,7|668,4,0,0,0,0,1,13|669,2,0,0,0,0,1,8|670,4,0,0,0,0,1,16|671,3,0,0,0,0,1,4|672,1,0,0,0,0,1,5|673,5,0,0,0,0,1,12|674,4,0,0,0,0,1,6|675,5,0,0,0,0,1,16|676,2,0,0,0,0,1,14|677,2,0,0,0,0,1,5|678,5,0,0,0,0,1,12|679,5,0,0,0,0,1,16|680,3,0,0,0,0,1,1|681,3,0,0,0,0,1,9|682,3,0,0,0,0,1,10|683,5,0,0,0,0,1,7|684,3,0,0,0,0,1,4|685,4,0,0,0,0,1,17|686,3,0,0,0,0,1,8|687,5,0,0,0,0,1,7|688,1,0,0,0,0,1,5|689,1,0,0,0,0,1,15|690,3,0,0,0,0,1,13|691,4,0,0,0,0,1,18|692,3,0,0,0,0,1,9|693,2,0,0,0,0,1,4|694,1,0,0,0,0,1,10|];
